(set-info :smt-lib-version 2.6)
(set-info :category "crafted")
(set-logic QF_FF)
(define-sort FF0 () (_ FiniteField 52435875175126190479447740508185965837690552500527637822603658699938581184513))
(declare-fun k () Bool)
(declare-fun b () Bool)
(declare-fun j () Bool)
(declare-fun l () Bool)
(declare-fun a () Bool)
(declare-fun c () Bool)
(declare-fun f () Bool)
(declare-fun g () Bool)
(declare-fun e () Bool)
(declare-fun i () Bool)
(declare-fun d () Bool)
(declare-fun h () Bool)
(declare-fun return_n1 () FF0)
(declare-fun mul_n80 () FF0)
(declare-fun mul_n76 () FF0)
(declare-fun mul_n79 () FF0)
(declare-fun mul_n77 () FF0)
(declare-fun mul_n78 () FF0)
(declare-fun j_n5 () FF0)
(declare-fun mul_n13 () FF0)
(declare-fun f_n2 () FF0)
(declare-fun mul_n20 () FF0)
(declare-fun mul_n70 () FF0)
(declare-fun a_n12 () FF0)
(declare-fun mul_n75 () FF0)
(declare-fun mul_n59 () FF0)
(declare-fun k_n3 () FF0)
(declare-fun mul_n24 () FF0)
(declare-fun mul_n74 () FF0)
(declare-fun mul_n72 () FF0)
(declare-fun mul_n73 () FF0)
(declare-fun mul_n37 () FF0)
(declare-fun c_n8 () FF0)
(declare-fun mul_n42 () FF0)
(declare-fun mul_n71 () FF0)
(declare-fun mul_n57 () FF0)
(declare-fun mul_n69 () FF0)
(declare-fun mul_n68 () FF0)
(declare-fun mul_n58 () FF0)
(declare-fun mul_n67 () FF0)
(declare-fun e_n4 () FF0)
(declare-fun mul_n23 () FF0)
(declare-fun mul_n14 () FF0)
(declare-fun mul_n66 () FF0)
(declare-fun mul_n65 () FF0)
(declare-fun mul_n34 () FF0)
(declare-fun mul_n64 () FF0)
(declare-fun mul_n29 () FF0)
(declare-fun mul_n63 () FF0)
(declare-fun mul_n62 () FF0)
(declare-fun mul_n22 () FF0)
(declare-fun mul_n61 () FF0)
(declare-fun mul_n41 () FF0)
(declare-fun mul_n60 () FF0)
(declare-fun mul_n15 () FF0)
(declare-fun mul_n56 () FF0)
(declare-fun b_n10 () FF0)
(declare-fun mul_n55 () FF0)
(declare-fun mul_n54 () FF0)
(declare-fun mul_n53 () FF0)
(declare-fun mul_n52 () FF0)
(declare-fun g_n11 () FF0)
(declare-fun mul_n51 () FF0)
(declare-fun i_n7 () FF0)
(declare-fun mul_n50 () FF0)
(declare-fun mul_n49 () FF0)
(declare-fun mul_n48 () FF0)
(declare-fun d_n6 () FF0)
(declare-fun mul_n47 () FF0)
(declare-fun mul_n46 () FF0)
(declare-fun mul_n45 () FF0)
(declare-fun l_n0 () FF0)
(declare-fun mul_n44 () FF0)
(declare-fun mul_n43 () FF0)
(declare-fun h_n9 () FF0)
(declare-fun mul_n40 () FF0)
(declare-fun mul_n39 () FF0)
(declare-fun mul_n38 () FF0)
(declare-fun mul_n36 () FF0)
(declare-fun mul_n35 () FF0)
(declare-fun mul_n33 () FF0)
(declare-fun mul_n32 () FF0)
(declare-fun mul_n31 () FF0)
(declare-fun mul_n30 () FF0)
(declare-fun mul_n28 () FF0)
(declare-fun mul_n27 () FF0)
(declare-fun mul_n26 () FF0)
(declare-fun mul_n25 () FF0)
(declare-fun mul_n21 () FF0)
(declare-fun mul_n19 () FF0)
(declare-fun mul_n18 () FF0)
(declare-fun mul_n17 () FF0)
(declare-fun mul_n16 () FF0)
(assert 
  (let ((let0 k))
  (let ((let1 b))
  (let ((let2 j))
  (let ((let3 l))
  (let ((let4 a))
  (let ((let5 (ite let4 let3 let2)))
  (let ((let6 (ite let5 let1 let0)))
  (let ((let7 c))
  (let ((let8 (not let7)))
  (let ((let9 (=> let8 let6)))
  (let ((let10 (not let1)))
  (let ((let11 f))
  (let ((let12 g))
  (let ((let13 e))
  (let ((let14 i))
  (let ((let15 d))
  (let ((let16 (or let15 let7 let14 let13 let12 let11)))
  (let ((let17 (not let11)))
  (let ((let18 (and let17 let16 let10)))
  (let ((let19 (not let16)))
  (let ((let20 h))
  (let ((let21 (=> let13 let20)))
  (let ((let22 (or let21 let0)))
  (let ((let23 (or let12 let22 let19 let8 let0 let15)))
  (let ((let24 (and let23 let3 let4 let18 let2 let18)))
  (let ((let25 (or let10 let7 let11 let13)))
  (let ((let26 (or let2 let24 let14 let25 let19)))
  (let ((let27 (not let22)))
  (let ((let28 (=> let23 let27)))
  (let ((let29 (and let20 let28 let17 let3 let5 let25 let15 let21 let26 let14 let12 let6 let24 let10 let1 let9)))
  (let ((let30 (= let19 let29)))
  (let ((let31 (not let27)))
  (let ((let32 (= let31 let0)))
  (let ((let33 (and let27 let9 let26 let18 let5 let23 let24 let11 let6)))
  (let ((let34 (ite let7 let17 let33)))
  (let ((let35 (= let34 let32)))
  (let ((let36 (and let21 let13)))
  (let ((let37 (ite let36 let35 let30)))
  (let ((let38 (=> let36 let28)))
  (let ((let39 (and let8 let25 let38 let32 let4)))
  (let ((let40 (or let36 let16)))
  (let ((let41 (not let5)))
  (let ((let42 (=> let17 let41)))
  (let ((let43 (or let42 let40 let39 let37)))
  (let ((let44 return_n1))
  (let ((let45 (as ff1 FF0)))
  (let ((let46 (= let45 let44)))
  (let ((let47 (= let46 let43)))
  (let ((let48 (as ff0 FF0)))
  (let ((let49 (= let48 let44)))
  (let ((let50 (or let46 let49)))
  (let ((let51 (and let50 let47)))
  (let ((let52 mul_n80))
  (let ((let53 (as ff52435875175126190479447740508185965837690552500527637822603658699938581184512 FF0)))
  (let ((let54 mul_n76))
  (let ((let55 (ff.mul let54 let53)))
  (let ((let56 (ff.add let55 let45)))
  (let ((let57 mul_n79))
  (let ((let58 (ff.mul let57 let56)))
  (let ((let59 (= let58 let52)))
  (let ((let60 mul_n77))
  (let ((let61 mul_n78))
  (let ((let62 (ff.mul let61 let60)))
  (let ((let63 (= let62 let57)))
  (let ((let64 j_n5))
  (let ((let65 mul_n13))
  (let ((let66 (ff.add let65 let64)))
  (let ((let67 f_n2))
  (let ((let68 (ff.mul let67 let53)))
  (let ((let69 (ff.add let68 let45)))
  (let ((let70 (ff.mul let69 let66)))
  (let ((let71 (= let70 let61)))
  (let ((let72 mul_n20))
  (let ((let73 mul_n70))
  (let ((let74 (ff.mul let73 let53)))
  (let ((let75 (ff.add let74 let45)))
  (let ((let76 (ff.mul let75 let72)))
  (let ((let77 (= let76 let60)))
  (let ((let78 a_n12))
  (let ((let79 mul_n75))
  (let ((let80 (ff.mul let79 let78)))
  (let ((let81 (= let80 let54)))
  (let ((let82 mul_n59))
  (let ((let83 k_n3))
  (let ((let84 (ff.mul let83 let53)))
  (let ((let85 mul_n24))
  (let ((let86 (ff.add let85 let84 let82)))
  (let ((let87 mul_n74))
  (let ((let88 (ff.mul let87 let86)))
  (let ((let89 (= let88 let79)))
  (let ((let90 mul_n72))
  (let ((let91 (ff.mul let90 let53)))
  (let ((let92 (ff.add let91 let45)))
  (let ((let93 mul_n73))
  (let ((let94 (ff.mul let93 let92)))
  (let ((let95 (= let94 let87)))
  (let ((let96 mul_n37))
  (let ((let97 (ff.mul let96 let53)))
  (let ((let98 (ff.add let97 let45)))
  (let ((let99 c_n8))
  (let ((let100 (ff.mul let99 let53)))
  (let ((let101 (ff.add let100 let45)))
  (let ((let102 (ff.mul let101 let98)))
  (let ((let103 (= let102 let93)))
  (let ((let104 mul_n42))
  (let ((let105 (ff.mul let73 let104)))
  (let ((let106 (= let105 let90)))
  (let ((let107 mul_n71))
  (let ((let108 mul_n57))
  (let ((let109 mul_n69))
  (let ((let110 (ff.mul let85 let53)))
  (let ((let111 (ff.mul let82 let53)))
  (let ((let112 mul_n68))
  (let ((let113 (ff.mul let112 let53)))
  (let ((let114 mul_n58))
  (let ((let115 (ff.mul let114 let53)))
  (let ((let116 mul_n67))
  (let ((let117 (ff.mul let116 let53)))
  (let ((let118 (ff.add let117 let115 let113 let72 let111 let110 let109 let108 let83)))
  (let ((let119 (ff.mul let73 let118)))
  (let ((let120 (= let119 let107)))
  (let ((let121 e_n4))
  (let ((let122 mul_n23))
  (let ((let123 (ff.mul let122 let53)))
  (let ((let124 (ff.add let123 let45)))
  (let ((let125 (ff.mul let124 let121)))
  (let ((let126 (= let125 let73)))
  (let ((let127 (as ff2 FF0)))
  (let ((let128 (ff.mul let116 let127)))
  (let ((let129 (ff.mul let112 let127)))
  (let ((let130 (ff.add let129 let128)))
  (let ((let131 (ff.mul let130 let86)))
  (let ((let132 (= let131 let109)))
  (let ((let133 (ff.add let68 let117 let45)))
  (let ((let134 (ff.mul let99 let133)))
  (let ((let135 (= let134 let112)))
  (let ((let136 mul_n14))
  (let ((let137 (ff.add let136 let83)))
  (let ((let138 mul_n66))
  (let ((let139 (ff.mul let138 let137)))
  (let ((let140 (= let139 let116)))
  (let ((let141 mul_n65))
  (let ((let142 (ff.mul let141 let67)))
  (let ((let143 (= let142 let138)))
  (let ((let144 mul_n34))
  (let ((let145 mul_n64))
  (let ((let146 (ff.mul let145 let144)))
  (let ((let147 (= let146 let141)))
  (let ((let148 mul_n29))
  (let ((let149 (ff.mul let148 let53)))
  (let ((let150 (ff.add let149 let45)))
  (let ((let151 mul_n63))
  (let ((let152 (ff.mul let151 let150)))
  (let ((let153 (= let152 let145)))
  (let ((let154 mul_n62))
  (let ((let155 (ff.mul let154 let66)))
  (let ((let156 (= let155 let151)))
  (let ((let157 mul_n22))
  (let ((let158 mul_n61))
  (let ((let159 (ff.mul let158 let157)))
  (let ((let160 (= let159 let154)))
  (let ((let161 mul_n41))
  (let ((let162 (ff.mul let161 let53)))
  (let ((let163 (ff.add let162 let45)))
  (let ((let164 mul_n60))
  (let ((let165 (ff.mul let164 let163)))
  (let ((let166 (= let165 let158)))
  (let ((let167 mul_n15))
  (let ((let168 (ff.mul let167 let53)))
  (let ((let169 (ff.add let168 let45)))
  (let ((let170 (ff.mul let85 let169)))
  (let ((let171 (= let170 let164)))
  (let ((let172 (as ff52435875175126190479447740508185965837690552500527637822603658699938581184511 FF0)))
  (let ((let173 (ff.mul let85 let172)))
  (let ((let174 (ff.add let173 let127)))
  (let ((let175 (ff.mul let174 let83)))
  (let ((let176 (= let175 let82)))
  (let ((let177 (ff.mul let72 let127)))
  (let ((let178 (ff.mul let177 let108)))
  (let ((let179 (= let178 let114)))
  (let ((let180 mul_n56))
  (let ((let181 (ff.mul let180 let169)))
  (let ((let182 (= let181 let108)))
  (let ((let183 b_n10))
  (let ((let184 mul_n55))
  (let ((let185 (ff.mul let184 let183)))
  (let ((let186 (= let185 let180)))
  (let ((let187 (ff.mul let183 let53)))
  (let ((let188 (ff.add let187 let45)))
  (let ((let189 mul_n54))
  (let ((let190 (ff.mul let189 let188)))
  (let ((let191 (= let190 let184)))
  (let ((let192 mul_n53))
  (let ((let193 (ff.mul let192 let144)))
  (let ((let194 (= let193 let189)))
  (let ((let195 mul_n52))
  (let ((let196 (ff.mul let195 let137)))
  (let ((let197 (= let196 let192)))
  (let ((let198 g_n11))
  (let ((let199 mul_n51))
  (let ((let200 (ff.mul let199 let198)))
  (let ((let201 (= let200 let195)))
  (let ((let202 i_n7))
  (let ((let203 mul_n50))
  (let ((let204 (ff.mul let203 let202)))
  (let ((let205 (= let204 let199)))
  (let ((let206 mul_n49))
  (let ((let207 (ff.mul let206 let163)))
  (let ((let208 (= let207 let203)))
  (let ((let209 mul_n48))
  (let ((let210 (ff.mul let209 let124)))
  (let ((let211 (= let210 let206)))
  (let ((let212 d_n6))
  (let ((let213 mul_n47))
  (let ((let214 (ff.mul let213 let212)))
  (let ((let215 (= let214 let209)))
  (let ((let216 mul_n46))
  (let ((let217 (ff.mul let216 let98)))
  (let ((let218 (= let217 let213)))
  (let ((let219 mul_n45))
  (let ((let220 (ff.mul let219 let66)))
  (let ((let221 (= let220 let216)))
  (let ((let222 l_n0))
  (let ((let223 mul_n44))
  (let ((let224 (ff.mul let223 let222)))
  (let ((let225 (= let224 let219)))
  (let ((let226 mul_n43))
  (let ((let227 (ff.mul let226 let69)))
  (let ((let228 (= let227 let223)))
  (let ((let229 (ff.mul let104 let53)))
  (let ((let230 (ff.add let229 let45)))
  (let ((let231 h_n9))
  (let ((let232 (ff.mul let231 let230)))
  (let ((let233 (= let232 let226)))
  (let ((let234 (ff.add let110 let45)))
  (let ((let235 (ff.mul let150 let234)))
  (let ((let236 (= let235 let104)))
  (let ((let237 (ff.mul let72 let53)))
  (let ((let238 (ff.add let237 let45)))
  (let ((let239 mul_n40))
  (let ((let240 (ff.mul let239 let238)))
  (let ((let241 (= let240 let161)))
  (let ((let242 mul_n39))
  (let ((let243 (ff.mul let242 let96)))
  (let ((let244 (= let243 let239)))
  (let ((let245 (ff.mul let202 let53)))
  (let ((let246 (ff.add let245 let45)))
  (let ((let247 mul_n38))
  (let ((let248 (ff.mul let247 let246)))
  (let ((let249 (= let248 let242)))
  (let ((let250 (ff.mul let144 let53)))
  (let ((let251 (ff.add let250 let45)))
  (let ((let252 (ff.mul let64 let53)))
  (let ((let253 (ff.add let252 let45)))
  (let ((let254 (ff.mul let253 let251)))
  (let ((let255 (= let254 let247)))
  (let ((let256 (ff.mul let121 let53)))
  (let ((let257 (ff.add let256 let45)))
  (let ((let258 mul_n36))
  (let ((let259 (ff.mul let258 let257)))
  (let ((let260 (= let259 let96)))
  (let ((let261 mul_n35))
  (let ((let262 (ff.mul let261 let69)))
  (let ((let263 (= let262 let258)))
  (let ((let264 (ff.mul let183 let101)))
  (let ((let265 (= let264 let261)))
  (let ((let266 mul_n33))
  (let ((let267 (ff.mul let266 let157)))
  (let ((let268 (= let267 let144)))
  (let ((let269 mul_n32))
  (let ((let270 (ff.mul let269 let64)))
  (let ((let271 (= let270 let266)))
  (let ((let272 mul_n31))
  (let ((let273 (ff.mul let272 let157)))
  (let ((let274 (= let273 let269)))
  (let ((let275 mul_n30))
  (let ((let276 (ff.mul let275 let78)))
  (let ((let277 (= let276 let272)))
  (let ((let278 (ff.mul let150 let222)))
  (let ((let279 (= let278 let275)))
  (let ((let280 (ff.mul let212 let53)))
  (let ((let281 (ff.add let280 let45)))
  (let ((let282 mul_n28))
  (let ((let283 (ff.mul let282 let281)))
  (let ((let284 (= let283 let148)))
  (let ((let285 (ff.add let84 let45)))
  (let ((let286 mul_n27))
  (let ((let287 (ff.mul let286 let285)))
  (let ((let288 (= let287 let282)))
  (let ((let289 mul_n26))
  (let ((let290 (ff.mul let289 let99)))
  (let ((let291 (= let290 let286)))
  (let ((let292 mul_n25))
  (let ((let293 (ff.mul let292 let238)))
  (let ((let294 (= let293 let289)))
  (let ((let295 (ff.mul let198 let53)))
  (let ((let296 (ff.add let295 let45)))
  (let ((let297 (ff.mul let296 let85)))
  (let ((let298 (= let297 let292)))
  (let ((let299 (ff.mul let122 let285)))
  (let ((let300 (= let299 let85)))
  (let ((let301 (ff.mul let231 let53)))
  (let ((let302 (ff.add let301 let45)))
  (let ((let303 (ff.mul let121 let302)))
  (let ((let304 (= let303 let122)))
  (let ((let305 mul_n21))
  (let ((let306 (ff.mul let305 let188)))
  (let ((let307 (= let306 let157)))
  (let ((let308 (ff.mul let69 let238)))
  (let ((let309 (= let308 let305)))
  (let ((let310 mul_n19))
  (let ((let311 (ff.mul let310 let69)))
  (let ((let312 (= let311 let72)))
  (let ((let313 mul_n18))
  (let ((let314 (ff.mul let313 let296)))
  (let ((let315 (= let314 let310)))
  (let ((let316 mul_n17))
  (let ((let317 (ff.mul let316 let257)))
  (let ((let318 (= let317 let313)))
  (let ((let319 mul_n16))
  (let ((let320 (ff.mul let319 let246)))
  (let ((let321 (= let320 let316)))
  (let ((let322 (ff.mul let281 let101)))
  (let ((let323 (= let322 let319)))
  (let ((let324 (ff.mul let136 let53)))
  (let ((let325 (ff.add let324 let84 let45)))
  (let ((let326 (ff.mul let101 let325)))
  (let ((let327 (= let326 let167)))
  (let ((let328 (ff.add let183 let84)))
  (let ((let329 (ff.mul let66 let328)))
  (let ((let330 (= let329 let136)))
  (let ((let331 (ff.add let222 let252)))
  (let ((let332 (ff.mul let78 let331)))
  (let ((let333 (= let332 let65)))
  (let ((let334 (and let333 let330 let327 let323 let321 let318 let315 let312 let309 let307 let304 let300 let298 let294 let291 let288 let284 let279 let277 let274 let271 let268 let265 let263 let260 let255 let249 let244 let241 let236 let233 let228 let225 let221 let218 let215 let211 let208 let205 let201 let197 let194 let191 let186 let182 let179 let176 let171 let166 let160 let156 let153 let147 let143 let140 let135 let132 let126 let120 let106 let103 let95 let89 let81 let77 let71 let63 let59)))
  (let ((let335 (ite let7 let45 let48)))
  (let ((let336 (= let99 let335)))
  (let ((let337 (ite let11 let45 let48)))
  (let ((let338 (= let67 let337)))
  (let ((let339 (ite let2 let45 let48)))
  (let ((let340 (= let64 let339)))
  (let ((let341 (ite let12 let45 let48)))
  (let ((let342 (= let198 let341)))
  (let ((let343 (ite let3 let45 let48)))
  (let ((let344 (= let222 let343)))
  (let ((let345 (ite let14 let45 let48)))
  (let ((let346 (= let202 let345)))
  (let ((let347 (ite let20 let45 let48)))
  (let ((let348 (= let231 let347)))
  (let ((let349 (ite let4 let45 let48)))
  (let ((let350 (= let78 let349)))
  (let ((let351 (ite let13 let45 let48)))
  (let ((let352 (= let121 let351)))
  (let ((let353 (ite let15 let45 let48)))
  (let ((let354 (= let212 let353)))
  (let ((let355 (ite let1 let45 let48)))
  (let ((let356 (= let183 let355)))
  (let ((let357 (ite let0 let45 let48)))
  (let ((let358 (= let83 let357)))
  (let ((let359 (and let358 let356 let354 let352 let350 let348 let346 let344 let342 let340 let338 let336)))
  (let ((let360 (and let359 let334)))
  (let ((let361 (=> let360 let51)))
  (let ((let362 (not let361)))
  let362
)))))))))))))))))))))))))))))))))))))))))))))))))))))))))))))))))))))))))))))))))))))))))))))))))))))))))))))))))))))))))))))))))))))))))))))))))))))))))))))))))))))))))))))))))))))))))))))))))))))))))))))))))))))))))))))))))))))))))))))))))))))))))))))))))))))))))))))))))))))))))))))))))))))))))))))))))))))))))))))))))))))))))))))))))))))))))))))))))))))))))))
)
(check-sat)
